c ind 1 2 3 4 5 6 7 8 9 10 11 12 13 14 15 16 17 18 19 20 21 22 23 24 25 26 27 0
p cnf 205 294               
-10 4 -28 0
28 -31 0
-11 5 -29 0
29 -31 0
-12 6 -30 0
30 -31 0
-1 31 -32 0
32 -43 0
-13 4 -33 0
33 -36 0
-14 5 -34 0
34 -36 0
-15 6 -35 0
35 -36 0
-2 36 -37 0
37 -43 0
-16 4 -38 0
38 -41 0
-17 5 -39 0
39 -41 0
-18 6 -40 0
40 -41 0
-3 41 -42 0
42 -43 0
43 -89 0
-10 44 0
-11 44 0
-12 44 0
-44 1 -47 0
47 -50 0
-13 45 0
-14 45 0
-15 45 0
-45 2 -48 0
48 -50 0
-16 46 0
-17 46 0
-18 46 0
-46 3 -49 0
49 -50 0
50 -89 0
-20 -19 -51 0
51 -55 0
-19 52 0
-20 52 0
19 20 -52 0
-52 -21 -53 0
53 -55 0
-21 54 0
-52 54 0
21 52 -54 0
54 -55 0
55 -60 0
-19 7 -56 0
56 -59 0
-20 8 -57 0
57 -59 0
-21 9 -58 0
58 -59 0
59 -60 0
-4 60 -61 0
61 -84 0
-23 -22 -62 0
62 -66 0
-22 63 0
-23 63 0
22 23 -63 0
-63 -24 -64 0
64 -66 0
-24 65 0
-63 65 0
24 63 -65 0
65 -66 0
66 -71 0
-22 7 -67 0
67 -70 0
-23 8 -68 0
68 -70 0
-24 9 -69 0
69 -70 0
70 -71 0
-5 71 -72 0
72 -84 0
-26 -25 -73 0
73 -77 0
-25 74 0
-26 74 0
25 26 -74 0
-74 -27 -75 0
75 -77 0
-27 76 0
-74 76 0
27 74 -76 0
76 -77 0
77 -82 0
-25 7 -78 0
78 -81 0
-26 8 -79 0
79 -81 0
-27 9 -80 0
80 -81 0
81 -82 0
-6 82 -83 0
83 -84 0
84 -89 0
-54 4 -85 0
85 -88 0
-65 5 -86 0
86 -88 0
-76 6 -87 0
87 -88 0
88 -89 0
-7 8 -90 0
90 -104 0
-7 -8 91 0
7 8 91 0
-8 8 91 0
-19 20 -92 0
-91 92 -93 0
93 -104 0
-19 -20 94 0
19 20 94 0
-20 20 94 0
-91 -94 95 0
-22 23 -96 0
-95 96 -97 0
97 -104 0
-22 -23 98 0
22 23 98 0
-23 23 98 0
-95 -98 99 0
-25 26 -100 0
-99 100 -101 0
101 -104 0
104 -204 0
-8 9 -105 0
105 -119 0
-8 -9 106 0
8 9 106 0
-9 9 106 0
-20 21 -107 0
-106 107 -108 0
108 -119 0
-20 -21 109 0
20 21 109 0
-21 21 109 0
-106 -109 110 0
-23 24 -111 0
-110 111 -112 0
112 -119 0
-23 -24 113 0
23 24 113 0
-24 24 113 0
-110 -113 114 0
-26 27 -115 0
-114 115 -116 0
116 -119 0
119 -204 0
-4 5 -120 0
120 -146 0
-4 -5 121 0
4 5 121 0
-5 5 121 0
-10 11 -122 0
-121 122 -123 0
123 -146 0
-10 -11 124 0
10 11 124 0
-11 11 124 0
-121 -124 125 0
-13 14 -126 0
-125 126 -127 0
127 -146 0
-13 -14 128 0
13 14 128 0
-14 14 128 0
-125 -128 129 0
-16 17 -130 0
-129 130 -131 0
131 -146 0
-16 -17 132 0
16 17 132 0
-17 17 132 0
-129 -132 133 0
-19 22 -134 0
-133 134 -135 0
135 -146 0
-19 -22 136 0
19 22 136 0
-22 22 136 0
-133 -136 137 0
-20 23 -138 0
-137 138 -139 0
139 -146 0
-20 -23 140 0
20 23 140 0
-23 23 140 0
-137 -140 141 0
-21 24 -142 0
-141 142 -143 0
143 -146 0
146 -204 0
-5 6 -147 0
147 -173 0
-5 -6 148 0
5 6 148 0
-6 6 148 0
-11 12 -149 0
-148 149 -150 0
150 -173 0
-11 -12 151 0
11 12 151 0
-12 12 151 0
-148 -151 152 0
-14 15 -153 0
-152 153 -154 0
154 -173 0
-14 -15 155 0
14 15 155 0
-15 15 155 0
-152 -155 156 0
-17 18 -157 0
-156 157 -158 0
158 -173 0
-17 -18 159 0
17 18 159 0
-18 18 159 0
-156 -159 160 0
-22 25 -161 0
-160 161 -162 0
162 -173 0
-22 -25 163 0
22 25 163 0
-25 25 163 0
-160 -163 164 0
-23 26 -165 0
-164 165 -166 0
166 -173 0
-23 -26 167 0
23 26 167 0
-26 26 167 0
-164 -167 168 0
-24 27 -169 0
-168 169 -170 0
170 -173 0
173 -204 0
-1 2 -174 0
174 -188 0
-1 -2 175 0
1 2 175 0
-2 2 175 0
-10 13 -176 0
-175 176 -177 0
177 -188 0
-10 -13 178 0
10 13 178 0
-13 13 178 0
-175 -178 179 0
-11 14 -180 0
-179 180 -181 0
181 -188 0
-11 -14 182 0
11 14 182 0
-14 14 182 0
-179 -182 183 0
-12 15 -184 0
-183 184 -185 0
185 -188 0
188 -204 0
-2 3 -189 0
189 -203 0
-2 -3 190 0
2 3 190 0
-3 3 190 0
-13 16 -191 0
-190 191 -192 0
192 -203 0
-13 -16 193 0
13 16 193 0
-16 16 193 0
-190 -193 194 0
-14 17 -195 0
-194 195 -196 0
196 -203 0
-14 -17 197 0
14 17 197 0
-17 17 197 0
-194 -197 198 0
-15 18 -199 0
-198 199 -200 0
200 -203 0
203 -204 0
89 0
204 0
